
List of user-set options:

                                    Name   Value                used
                acceptable_compl_inf_tol = 0.001                 yes
              acceptable_constr_viol_tol = 1e-05                 yes
                 acceptable_dual_inf_tol = 100                   yes
                         acceptable_iter = 15                    yes
               acceptable_obj_change_tol = 0.001                 yes
                          acceptable_tol = 10                    yes
                      bound_relax_factor = 1e-12                 yes
                           compl_inf_tol = 1e-06                 yes
                         constr_viol_tol = 1e-06                 yes
                         derivative_test = first-order           yes
            derivative_test_perturbation = 1e-07                 yes
                            dual_inf_tol = 100000                yes
               expect_infeasible_problem = no                    yes
                        file_print_level = 5                     yes
                   hessian_approximation = limited-memory        yes
                           linear_solver = mumps                 yes
                                max_iter = 3000                  yes
                             mu_strategy = adaptive              yes
                nlp_scaling_max_gradient = 100                   yes
                      nlp_scaling_method = gradient-based        yes
                        option_file_name =                        no
                             output_file = fitter-ipopt.log      yes
                             print_level = 5                     yes
             print_options_documentation = no                    yes
                      print_user_options = yes                   yes
                        start_with_resto = no                    yes
                                     tol = 0.001                 yes

******************************************************************************
This program contains Ipopt, a library for large-scale nonlinear optimization.
 Ipopt is released as open source code under the Eclipse Public License (EPL).
         For more information visit http://projects.coin-or.org/Ipopt
******************************************************************************

This is Ipopt version 3.12.6, running with linear solver mumps.
NOTE: Other linear solvers might be more efficient (see Ipopt documentation).

Starting derivative checker for first derivatives.


No errors detected by derivative checker.

Number of nonzeros in equality constraint Jacobian...:        0
Number of nonzeros in inequality constraint Jacobian.:     2688
Number of nonzeros in Lagrangian Hessian.............:        0

Total number of variables............................:        7
                     variables with only lower bounds:        1
                variables with lower and upper bounds:        0
                     variables with only upper bounds:        0
Total number of equality constraints.................:        0
Total number of inequality constraints...............:      384
        inequality constraints with only lower bounds:        0
   inequality constraints with lower and upper bounds:        0
        inequality constraints with only upper bounds:      384

iter    objective    inf_pr   inf_du lg(mu)  ||d||  lg(rg) alpha_du alpha_pr  ls
   0  3.2055399e-04 0.00e+00 1.00e+00   0.0 0.00e+00    -  0.00e+00 0.00e+00   0
   1  5.7777485e-04 0.00e+00 3.72e-01  -8.0 1.70e-02    -  7.27e-01 1.00e+00h  1
   2  7.2283237e-04 0.00e+00 5.58e-02  -4.7 4.82e-03    -  9.31e-01 1.00e+00h  1
   3  7.1363451e-04 0.00e+00 5.47e-03  -5.0 1.76e-03    -  9.81e-01 1.00e+00h  1
   4  5.4181668e-04 0.00e+00 7.11e-03  -6.8 8.12e-03    -  9.34e-01 1.00e+00h  1
   5  3.9046244e-04 0.00e+00 2.73e-03 -11.0 5.97e-03    -  1.00e+00 1.00e+00h  1
   6  3.4357911e-04 1.08e-04 4.36e-03  -7.8 5.80e-03    -  1.00e+00 1.00e+00h  1
   7  3.3768081e-04 2.63e-04 2.20e-03  -7.8 3.83e-03    -  1.00e+00 1.00e+00h  1
   8  3.3781937e-04 7.70e-05 2.33e-03  -8.7 2.22e-03    -  1.00e+00 1.00e+00h  1
   9  3.1602860e-04 6.92e-04 2.10e-03  -7.8 1.31e-02    -  1.00e+00 7.80e-01h  1
iter    objective    inf_pr   inf_du lg(mu)  ||d||  lg(rg) alpha_du alpha_pr  ls
  10  3.3881926e-04 0.00e+00 7.95e-03  -7.7 9.30e-03    -  9.08e-01 1.00e+00h  1
  11  3.2420872e-04 0.00e+00 1.32e-03  -7.3 8.47e-03    -  1.00e+00 1.00e+00h  1
  12  3.1837664e-04 1.92e-05 6.72e-03  -8.1 2.40e-03    -  1.00e+00 1.00e+00h  1
  13  3.1889882e-04 1.89e-07 1.62e-03  -7.9 2.64e-04    -  1.00e+00 1.00e+00h  1
  14  3.1727534e-04 0.00e+00 5.81e-04  -9.0 5.52e-04    -  1.00e+00 1.00e+00h  1

Number of Iterations....: 14

                                   (scaled)                 (unscaled)
Objective...............:   3.1727533665629681e-04    3.1727533665629681e-04
Dual infeasibility......:   5.8125775364810991e-04    5.8125775364810991e-04
Constraint violation....:   0.0000000000000000e+00    0.0000000000000000e+00
Complementarity.........:   3.3955557630013044e-09    3.3955557630013044e-09
Overall NLP error.......:   5.8125775364810991e-04    5.8125775364810991e-04


Number of objective function evaluations             = 15
Number of objective gradient evaluations             = 15
Number of equality constraint evaluations            = 0
Number of inequality constraint evaluations          = 15
Number of equality constraint Jacobian evaluations   = 0
Number of inequality constraint Jacobian evaluations = 15
Number of Lagrangian Hessian evaluations             = 0
Total CPU secs in IPOPT (w/o function evaluations)   =      0.240
Total CPU secs in NLP function evaluations           =      1.111

EXIT: Optimal Solution Found.
